20221024_PCST_ILP/Steiner1_dir_FC3_PtoC1_evid0.7_maxSt2_20_25.sol
# Objective value = -6.0388509800830015e+00
x_Gpa2_Ras2 1
x_Ras2_Tpk1 1
x_Tpk1_Pfk26 1
x_Ras2_Tpk2 0
x_Tpk2_Pfk26 0
x_Pbs2_Mih1 1
x_Mih1_Hsl1 1
x_Hsl1_Zds1 1
y_Gpa2 1
y_Ras2 1
y_Tpk1 1
y_Tpk2 0
y_Pbs2 1
y_Mih1 1
y_Hsl1 1
y_Pfk26 1
y_Zds1 1
